(declare-fun bvlambda_7_ ()Bool         )
(declare-fun bvlambda_8_ ()Bool         )
(declare-fun bvlambda_9_ () (_ BitVec 2))
(declare-fun bvlambda_10_ ()Bool         )
(declare-fun bvlambda_15_ ()Bool         )
(declare-fun bvlambda_33_ ()Bool         )
(declare-fun a136 () (Array (_ BitVec 1) (_ BitVec 12)))
(assert
(let (($e1 false    ))
(let (($e10 (_ bv3532 13)))
(let (($e19 (_ bv6 13)))
(let (($e28 (_ bv0 8)))
(let (($e142                            bvlambda_8_ ))
(let (($e143        $e142       ))
(let (($e144                             $e143 ))
(let (($e158        $e19               ))
(let (($e159               $e158                ))
(let (($e160 ((_ extract 12 1) $e159)))
(let (($e161 (store a136 $e1        $e160 )))
(let (($e233 (select a136 $e1)))
(let (($e280 (store a136 bvlambda_15_ $e233)))
(let (($e281 (select $e280 $e144)))
(let (($e354 (concat bvlambda_7_ bvlambda_8_)))
(let (($e355 (concat $e354 bvlambda_9_)))
(let (($e356 (concat $e355 bvlambda_10_)))
(let (($e379               bvlambda_33_        ))
(let (($e380 (select $e161 $e379)))
(let (($e383 (   extract        $e380)))
(let (($e433               $e383                ))
(let (($e545                                  $e10               ))
(let (($e594                     $e356 ))
(let (($e744 (   extract        $e281)))
(let (($e949 (select a136 true       )))
(let (($e950 (   extract        $e949)))
(let (($e956        $e950               ))
(let (($e957        (bvnot $e956)               ))
(let (($e966              (bvnot $e957) ))
(let (($e971                      $e966 ))
(let (($e977 (concat        $e28  $e594)))
(let (($e979                    $e977       ))
(let (($e980      (bvult $e979 $e545)         ))
(let (($e981 (bvand        $e433  $e980)))
(let (($e983               $e744                ))
(let (($e988               $e983                ))
(let (($e989 (bvand $e988 $e981)))
(let (($e990        (bvnot $e989)       ))
(let (($e1016                       (bvnot $e990) ))
              (bvand (bvnot $e1016) $e971)
                                                                                                                                                                                                                                                                                                                                                                                                                                                                                                                                                                                                                                                                                                                                                                                                                                                                                                                                                                                                                                                                                                                                          )                         )))    ) ))) )     )    )        ))     ))                                                                                                                                                                                                            )                                                                                                                                                     )                                                )                                                                                                               )                                                 )  ))                      )))                                                                        ))                                              )                                                                       ))))             )))                                                                        )        )        )        ))
